
18 18 18 18 18 18 18 2 2 2 2 2 2 2 2 2 2 2 2 6 2 2 2 6 2 2 6 2 6 6 6 6 6 6 6 6 6 6 6 7 7 7 7 7 7 6 7 7 6 7 7 6 7 7 7 7 7 7 7 7 7 13 18 7 13 7 7 7 7 13 13 7 13 7 18 13 13 13 13 13 13 13 13 18 18 13 13 18 18 13 18 18 18 18 18 18 18 18 18 18 
